(set-info :original "0-simple/04_recursive_unsat.bc")
(set-info :authors "SeaHorn v.0.1.0-rc3")
(declare-rel verifier.error (Bool Bool Bool ))
(declare-rel fibo@_tail (Int ))
(declare-rel fibo@UnifiedReturnBlock.split (Int Int ))
(declare-rel fibo (Bool Bool Bool Int Int ))
(declare-rel main@entry ())
(declare-rel main@entry.split ())
(declare-var fibo@%_6_0 Int )
(declare-var fibo@%_7_0 Int )
(declare-var fibo@%_8_0 Int )
(declare-var fibo@%_9_0 Int )
(declare-var fibo@%UnifiedRetVal_2 Int )
(declare-var fibo@%_br1_0 Bool )
(declare-var fibo@%_br_0 Bool )
(declare-var fibo@%.0_2 Int )
(declare-var fibo@%n_0 Int )
(declare-var fibo@%UnifiedRetVal_0 Int )
(declare-var fibo@_tail_0 Bool )
(declare-var fibo@_3_0 Bool )
(declare-var fibo@_5_0 Bool )
(declare-var fibo@%_br2_0 Int )
(declare-var fibo@_.0_0 Bool )
(declare-var |tuple(fibo@_3_0, fibo@_.0_0)| Bool )
(declare-var |tuple(fibo@_tail_0, fibo@_.0_0)| Bool )
(declare-var fibo@%.0_0 Int )
(declare-var fibo@%.0_1 Int )
(declare-var fibo@UnifiedReturnBlock_0 Bool )
(declare-var fibo@%UnifiedRetVal_1 Int )
(declare-var fibo@UnifiedReturnBlock.split_0 Bool )
(declare-var main@%_0_0 Int )
(declare-var main@%_1_0 Bool )
(declare-var main@entry_0 Bool )
(declare-var main@entry.split_0 Bool )
(rule (verifier.error false false false))
(rule (verifier.error false true true))
(rule (verifier.error true false true))
(rule (verifier.error true true true))
(rule (fibo true true true fibo@%n_0 fibo@%UnifiedRetVal_0))
(rule (fibo false true true fibo@%n_0 fibo@%UnifiedRetVal_0))
(rule (fibo false false false fibo@%n_0 fibo@%UnifiedRetVal_0))
(rule (fibo@_tail fibo@%n_0))
(rule (let ((a!1 (and (fibo@_tail fibo@%n_0)
                true
                (= fibo@%_br_0 (< fibo@%n_0 1))
                (=> fibo@_3_0 (and fibo@_3_0 fibo@_tail_0))
                (=> (and fibo@_3_0 fibo@_tail_0) (not fibo@%_br_0))
                (=> fibo@_3_0 (= fibo@%_br1_0 (= fibo@%n_0 1)))
                (=> fibo@_5_0 (and fibo@_5_0 fibo@_3_0))
                (=> (and fibo@_5_0 fibo@_3_0) (not fibo@%_br1_0))
                (=> fibo@_5_0 (= fibo@%_6_0 (+ fibo@%n_0 (- 1))))
                (fibo fibo@_5_0 false false fibo@%_6_0 fibo@%_7_0)
                (=> fibo@_5_0 (= fibo@%_8_0 (+ fibo@%n_0 (- 2))))
                (fibo fibo@_5_0 false false fibo@%_8_0 fibo@%_9_0)
                (=> fibo@_5_0 (= fibo@%_br2_0 (+ fibo@%_9_0 fibo@%_7_0)))
                (=> |tuple(fibo@_3_0, fibo@_.0_0)| fibo@_3_0)
                (=> |tuple(fibo@_tail_0, fibo@_.0_0)| fibo@_tail_0)
                (=> fibo@_.0_0
                    (or (and fibo@_3_0 |tuple(fibo@_3_0, fibo@_.0_0)|)
                        (and fibo@_tail_0 |tuple(fibo@_tail_0, fibo@_.0_0)|)))
                (=> (and fibo@_3_0 |tuple(fibo@_3_0, fibo@_.0_0)|) fibo@%_br1_0)
                (=> (and fibo@_3_0 |tuple(fibo@_3_0, fibo@_.0_0)|)
                    (= fibo@%.0_0 1))
                (=> (and fibo@_tail_0 |tuple(fibo@_tail_0, fibo@_.0_0)|)
                    fibo@%_br_0)
                (=> (and fibo@_tail_0 |tuple(fibo@_tail_0, fibo@_.0_0)|)
                    (= fibo@%.0_1 0))
                (=> (and fibo@_3_0 |tuple(fibo@_3_0, fibo@_.0_0)|)
                    (= fibo@%.0_2 fibo@%.0_0))
                (=> (and fibo@_tail_0 |tuple(fibo@_tail_0, fibo@_.0_0)|)
                    (= fibo@%.0_2 fibo@%.0_1))
                (=> fibo@UnifiedReturnBlock_0
                    (or (and fibo@UnifiedReturnBlock_0 fibo@_.0_0)
                        (and fibo@UnifiedReturnBlock_0 fibo@_5_0)))
                (=> (and fibo@UnifiedReturnBlock_0 fibo@_.0_0)
                    (= fibo@%UnifiedRetVal_0 fibo@%.0_2))
                (=> (and fibo@UnifiedReturnBlock_0 fibo@_5_0)
                    (= fibo@%UnifiedRetVal_1 fibo@%_br2_0))
                (=> (and fibo@UnifiedReturnBlock_0 fibo@_.0_0)
                    (= fibo@%UnifiedRetVal_2 fibo@%UnifiedRetVal_0))
                (=> (and fibo@UnifiedReturnBlock_0 fibo@_5_0)
                    (= fibo@%UnifiedRetVal_2 fibo@%UnifiedRetVal_1))
                (=> fibo@UnifiedReturnBlock.split_0
                    (and fibo@UnifiedReturnBlock.split_0
                         fibo@UnifiedReturnBlock_0))
                fibo@UnifiedReturnBlock.split_0)))
  (=> a!1 (fibo@UnifiedReturnBlock.split fibo@%UnifiedRetVal_2 fibo@%n_0))))
(rule (=> (fibo@UnifiedReturnBlock.split fibo@%UnifiedRetVal_0 fibo@%n_0)
    (fibo true false false fibo@%n_0 fibo@%UnifiedRetVal_0)))
(rule main@entry)
(rule (=> (and main@entry
         true
         (fibo true false false 10 main@%_0_0)
         (= main@%_1_0 (= main@%_0_0 55))
         (not main@%_1_0)
         (=> main@entry.split_0 (and main@entry.split_0 main@entry_0))
         main@entry.split_0)
    main@entry.split))
(query main@entry.split)

